b'The following solver is parallelized by UG version 0.9.1 [GitHash: ]\n'
b'SCIP version 7.0.2 [precision: 8 byte] [memory: block] [mode: optimized] [LP solver: SoPlex 5.0.2] [GitHash: e9d280a398]\n'
b'Copyright (C) 2002-2020 Konrad-Zuse-Zentrum fuer Informationstechnik Berlin (ZIB)\n'
b'External codes: \n'
b'  Readline 7.0         GNU library for command line editing (gnu.org/s/readline)\n'
b'  SoPlex 5.0.2         Linear Programming Solver developed at Zuse Institute Berlin (soplex.zib.de) [GitHash: e24c304e]\n'
b'  CppAD 20180000.0     Algorithmic Differentiation of C++ algorithms developed by B. Bell (www.coin-or.org/CppAD)\n'
b'  ZLIB 1.2.11          General purpose compression library by J. Gailly and M. Adler (zlib.net)\n'
b'  GMP 6.1.2            GNU Multiple Precision Arithmetic Library developed by T. Granlund (gmplib.org)\n'
b'  ZIMPL 3.4.0          Zuse Institute Mathematical Programming Language developed by T. Koch (zimpl.zib.de)\n'
b'Default LC presolving (default).\n'
b'Original Problem   :\n'
b'  Problem name     : 001\n'
b'  Variables        : 5320 (1200 binary, 0 integer, 0 implicit integer, 4120 continuous)\n'
b'  Constraints      : 13871\n'
b'  Objective sense  : minimize\n'
b'Presolved Problem  :\n'
b'  Variables        : 782 (203 binary, 0 integer, 0 implicit integer, 579 continuous)\n'
b'  Constraints      : 880\n'
b'Constraints        : Number\n'
b'  varbound         : 160 \n'
b'  knapsack         : 7 \n'
b'  setppc           : 51 \n'
b'  linear           : 659 \n'
b'  logicor          : 3 \n'
b'** Instance transfer method used: 0\n'
b'** ParaScipInstance copy does not increase the number of variables. **\n'
b'LC is working with racing ramp-up and with rebuilding tree after racing.\n'
b'                               Nodes    Active                                            \n'
b'     Time          Nodes        Left   Solvers     Best Integer        Best Node       Gap     Best Node(S)    Gap(S)\n'
b'*       0              0           1         8           2.9958                -         -\n'
b'*       0              0           1         8           2.5232                -         -\n'
b'*       0              0           1         8           2.1721                -         -\n'
b'*       0              2           1         8           2.1176           0.7573   179.61%\n'
b'*       1              2           1         8           1.5428           0.7573   103.72%\n'
b'*       1              2           1         8           1.2427           0.7573    64.09%\n'
b'*       3            400         259         8           1.1113           0.7573    46.74%\n'
b'Racing ramp-up finished after 3.44 seconds. Selected strategy 3.\n'
b'        5           1309         556         8           1.1113           0.7573     46.74%           0.7573     46.74%\n'
b'       10           4320        1003         8           1.1113           0.7573     46.74%           0.7573     46.74%\n'
b'       15           6548         764         8           1.1113           0.7573     46.74%           0.7573     46.74%\n'
b'       20          19977         636         8           1.1113           0.7573     46.74%           0.7573     46.74%\n'
b'       25          37276        1182         8           1.1113           0.7573     46.74%           0.7573     46.74%\n'
b'       30          57232        1100         8           1.1113           0.7573     46.74%           0.7573     46.74%\n'
b'       35          69961         741         8           1.1113           0.7573     46.74%           0.7573     46.74%\n'
b'       40          81980           0         0           1.1113           1.1113      0.00%\n'
b'SCIP Status        : problem is solved\n'
b'Total Time         : 40.21\n'
b'  solving          : 40.21\n'
b'  presolving       : 0.05 (included in solving)\n'
b'B&B Tree           :\n'
b'  nodes (total)    : 81980\n'
b'Solution           :\n'
b'  Solutions found  : 7\n'
b'  Primal Bound     : +1.11132461237424e+00\n'
b'  Dual Bound       : +1.11132461237424e+00\n'
b'Gap                : 0.00000 %\n'
